%chk=Tyrosine_b3lyp_cc-pvdz_opt.chk
# OPT B3LYP/cc-pVDZ

Freq

0 1
C      1.307719    1.087692    0.437359
C      2.608023    1.083124   -0.071953
C      3.183611   -0.120251   -0.465292
C      2.481366   -1.314279   -0.357565
C      1.182171   -1.309957    0.151902
C      0.583812   -0.107819    0.555254
C     -0.831909   -0.097345    1.088966
C     -1.897221   -0.122072   -0.019843
C     -3.286816   -0.348122    0.587391
O     -3.549758   -0.791342    1.693661
O     -4.287972   -0.061341   -0.280021
N     -1.892072    1.135849   -0.808177
O      4.449857   -0.171112   -0.968506
H      0.856348    2.031061    0.739375
H      3.148574    2.020552   -0.153535
H      2.945265   -2.246477   -0.666930
H      0.643726   -2.251115    0.235612
H     -0.978715    0.775337    1.740066
H     -0.951554   -0.967233    1.748977
H     -1.715816   -0.963009   -0.700600
H     -5.099982   -0.237559    0.239436
H     -1.042986    1.157861   -1.373127
H     -2.676504    1.091255   -1.462940
H      4.820831    0.726304   -0.959756

